qbf_easy_train/easy_657_SAT.qdimacs
p cnf 20 48
a 17 19 14 0
e 1 2 3 4 5 6 7 8 9 10 11 12 13 15 16 18 20 0
3 1 0
3 -2 0
-1 2 -3 0
2 -4 -5 0
-2 4 -5 0
2 4 5 0
-2 -4 5 0
6 4 0
6 5 0
-4 -5 -6 0
-7 -4 -8 0
7 4 -8 0
-7 4 8 0
7 -4 8 0
-6 -8 -9 0
6 8 -9 0
-6 8 9 0
6 -8 9 0
-10 -3 0
-10 9 0
3 -9 10 0
11 -2 -12 0
-11 2 -12 0
11 2 12 0
-11 -2 12 0
-13 -4 0
-13 12 0
4 -12 13 0
14 -15 -16 0
-14 15 -16 0
14 15 16 0
-14 -15 16 0
-18 -16 0
-18 -17 0
16 17 18 0
-13 18 -19 0
13 -18 -19 0
-13 -18 19 0
13 18 19 0
-10 19 -20 0
10 -19 -20 0
-10 -19 20 0
10 19 20 0
2 12 8 -4 0
4 18 -16 -5 2 -13 0
-18 -15 -4 -16 0
-12 -18 6 -15 -20 4 -9 0
20 0
