sat_easy_train/easy_657_SAT.dimacs
p cnf 136 468
4 -2 0
4 -3 0
2 3 -4 0
-5 1 0
-5 -4 0
-1 4 5 0
8 6 0
8 -7 0
-6 7 -8 0
-5 -8 -9 0
5 8 -9 0
-5 8 9 0
5 -8 9 0
-9 5 -10 0
9 -5 -10 0
-9 -5 10 0
9 5 10 0
-11 2 -12 0
11 -2 -12 0
-11 -2 12 0
11 2 12 0
14 3 0
14 -13 0
-3 13 -14 0
15 -12 0
15 14 0
12 -14 -15 0
16 -10 0
16 15 0
10 -15 -16 0
7 -1 -17 0
-7 1 -17 0
7 1 17 0
-7 -1 17 0
18 -11 0
18 3 0
11 -3 -18 0
-19 -17 0
-19 18 0
17 -18 19 0
-7 -19 -20 0
7 19 -20 0
-7 19 20 0
7 -19 20 0
-21 -16 0
-21 -20 0
16 20 21 0
-23 13 -24 0
23 -13 -24 0
-23 -13 24 0
23 13 24 0
-27 3 0
-27 -26 0
-3 26 27 0
-25 27 -28 0
25 -27 -28 0
-25 -27 28 0
25 27 28 0
-29 12 0
-29 28 0
-12 -28 29 0
-30 24 0
-30 -29 0
-24 29 30 0
31 -22 0
31 -30 0
22 30 -31 0
-21 -31 -32 0
21 31 -32 0
-21 31 32 0
21 -31 32 0
-34 -33 0
-34 31 0
33 -31 34 0
35 -9 0
35 -9 0
9 -35 0
34 35 -36 0
-34 -35 -36 0
34 -35 36 0
-34 35 36 0
37 32 0
37 -36 0
-32 36 -37 0
9 24 -38 0
-9 -24 -38 0
9 -24 38 0
-9 24 38 0
38 -3 -39 0
-38 3 -39 0
38 3 39 0
-38 -3 39 0
40 -3 0
40 39 0
3 -39 -40 0
-42 -33 0
-42 41 0
33 -41 42 0
-43 -25 0
-43 42 0
25 -42 43 0
44 11 0
44 11 0
-11 -44 0
-45 43 0
-45 -44 0
-43 44 45 0
12 -33 -46 0
-12 33 -46 0
12 33 46 0
-12 -33 46 0
47 26 0
47 -46 0
-26 46 -47 0
19 47 -48 0
-19 -47 -48 0
19 -47 48 0
-19 47 48 0
49 45 0
49 48 0
-45 -48 -49 0
41 -49 -50 0
-41 49 -50 0
41 49 50 0
-41 -49 50 0
51 -52 0
-51 -52 0
-53 6 0
-53 -1 0
-6 1 53 0
52 -53 -54 0
-52 53 -54 0
52 53 54 0
-52 -53 54 0
-42 -3 -55 0
42 3 -55 0
-42 3 55 0
42 -3 55 0
57 -55 0
57 -56 0
55 56 -57 0
54 57 -58 0
-54 -57 -58 0
54 -57 58 0
-54 57 58 0
59 58 0
59 -58 0
60 13 0
60 7 0
-13 -7 -60 0
61 22 0
61 -60 0
-22 60 -61 0
61 46 -62 0
-61 -46 -62 0
61 -46 62 0
-61 46 62 0
-63 59 0
-63 62 0
-59 -62 63 0
-64 50 0
-64 63 0
-50 -63 64 0
-65 40 0
-65 64 0
-40 -64 65 0
-37 65 -66 0
37 -65 -66 0
-37 -65 66 0
37 65 66 0
29 -12 -67 0
-29 12 -67 0
29 12 67 0
-29 -12 67 0
68 -7 0
68 67 0
7 -67 -68 0
-27 15 -69 0
27 -15 -69 0
-27 -15 69 0
27 15 69 0
-5 -69 -70 0
5 69 -70 0
-5 69 70 0
5 -69 70 0
71 -28 0
71 70 0
28 -70 -71 0
68 -71 -72 0
-68 71 -72 0
68 71 72 0
-68 -71 72 0
73 5 0
73 -7 0
-5 7 -73 0
72 -73 -74 0
-72 73 -74 0
72 73 74 0
-72 -73 74 0
-25 -41 -75 0
25 41 -75 0
-25 41 75 0
25 -41 75 0
76 -75 0
76 48 0
75 -48 -76 0
-77 -44 0
-77 -76 0
44 76 77 0
-78 74 0
-78 -77 0
-74 77 78 0
19 -14 -79 0
-19 14 -79 0
19 14 79 0
-19 -14 79 0
80 1 0
80 -61 0
-1 61 -80 0
-79 80 -81 0
79 -80 -81 0
-79 -80 81 0
79 80 81 0
82 78 0
82 81 0
-78 -81 -82 0
-6 -30 -83 0
6 30 -83 0
-6 30 83 0
6 -30 83 0
84 -82 0
84 -83 0
82 83 -84 0
-51 43 -85 0
51 -43 -85 0
-51 -43 85 0
51 43 85 0
85 22 -86 0
-85 -22 -86 0
85 -22 86 0
-85 22 86 0
24 45 -87 0
-24 -45 -87 0
24 -45 87 0
-24 45 87 0
-88 86 0
-88 -87 0
-86 87 88 0
-5 -87 -89 0
5 87 -89 0
-5 87 89 0
5 -87 89 0
88 -89 -90 0
-88 89 -90 0
88 89 90 0
-88 -89 90 0
91 -46 0
91 6 0
46 -6 -91 0
-92 90 0
-92 -91 0
-90 91 92 0
-84 -92 -93 0
84 92 -93 0
-84 92 93 0
84 -92 93 0
95 -58 0
95 94 0
58 -94 -95 0
-96 1 0
-96 14 0
-1 -14 96 0
-97 -96 0
-97 -28 0
96 28 97 0
98 -85 0
98 85 0
97 -98 -99 0
-97 98 -99 0
97 98 99 0
-97 -98 99 0
100 -95 0
100 -99 0
95 99 -100 0
-41 -86 -101 0
41 86 -101 0
-41 86 101 0
41 -86 101 0
102 -46 0
102 41 0
46 -41 -102 0
103 15 0
103 102 0
-15 -102 -103 0
-104 -49 0
-104 85 0
49 -85 104 0
105 -104 0
105 -20 0
104 20 -105 0
-106 103 0
-106 105 0
-103 -105 106 0
-101 -106 -107 0
101 106 -107 0
-101 106 107 0
101 -106 107 0
-108 5 0
-108 11 0
-5 -11 108 0
109 -15 0
109 -108 0
15 108 -109 0
110 107 0
110 -109 0
-107 109 -110 0
-111 -41 0
-111 -85 0
41 85 111 0
-111 -2 -112 0
111 2 -112 0
-111 2 112 0
111 -2 112 0
57 -112 -113 0
-57 112 -113 0
57 112 113 0
-57 -112 113 0
-46 30 -114 0
46 -30 -114 0
-46 -30 114 0
46 30 114 0
115 -33 0
115 -15 0
33 15 -115 0
114 115 -116 0
-114 -115 -116 0
114 -115 116 0
-114 115 116 0
-117 -113 0
-117 -116 0
113 116 117 0
-45 -6 -118 0
45 6 -118 0
-45 6 118 0
45 -6 118 0
-119 45 0
-119 39 0
-45 -39 119 0
-120 118 0
-120 119 0
-118 -119 120 0
117 -120 -121 0
-117 120 -121 0
117 120 121 0
-117 -120 121 0
110 121 -122 0
-110 -121 -122 0
110 -121 122 0
-110 121 122 0
41 7 -123 0
-41 -7 -123 0
41 -7 123 0
-41 7 123 0
-124 47 0
-124 123 0
-47 -123 124 0
-10 -44 -125 0
10 44 -125 0
-10 44 125 0
10 -44 125 0
124 125 -126 0
-124 -125 -126 0
124 -125 126 0
-124 125 126 0
127 56 0
127 -53 0
-56 53 -127 0
-128 126 0
-128 127 0
-126 -127 128 0
-129 122 0
-129 -128 0
-122 128 129 0
130 100 0
130 129 0
-100 -129 -130 0
-57 24 -131 0
57 -24 -131 0
-57 -24 131 0
57 24 131 0
132 -131 0
132 -67 0
131 67 -132 0
-132 17 -133 0
132 -17 -133 0
-132 -17 133 0
132 17 133 0
134 -130 0
134 133 0
130 -133 -134 0
135 -93 0
135 134 0
93 -134 -135 0
-136 66 0
-136 135 0
-66 -135 136 0
-19 -83 -102 90 38 0
-35 26 -6 72 -24 -113 0
-130 39 72 8 -122 116 0
-135 -108 94 -100 7 0
-12 -85 0
-14 -53 0
20 -126 29 0
54 135 0
-28 37 21 23 -81 0
-75 16 -58 0
123 133 0
-104 83 -107 72 -80 50 0
83 91 96 0
-127 4 -1 -133 56 0
122 45 129 78 0
-120 -59 -41 -126 0
-30 63 0
-12 43 77 -7 0
89 -65 -107 30 -52 -22 0
110 44 -46 101 -5 0
112 -33 55 0
125 63 0
-44 24 0
128 15 56 57 0
-113 -3 -88 0
15 102 73 -130 0
112 126 -65 74 0
73 79 27 -65 -118 0
91 -109 3 4 0
28 -27 0
-126 -13 36 124 100 0
-14 -88 -81 77 119 18 0
-48 49 0
78 -13 51 84 0
-9 3 -6 67 0
-84 -59 49 27 -101 0
-20 -59 0
-99 -126 0
-61 82 135 -116 0
-65 -88 15 95 -53 45 0
91 -68 -36 11 0
126 115 0
54 -75 -59 130 133 62 0
57 -101 19 25 127 17 0
-25 -41 0
-47 67 41 0
51 -5 70 7 -16 93 0
114 -117 110 0
62 129 -24 -123 -36 53 0
-18 26 0
-129 -34 69 54 0
30 54 35 29 111 0
-88 43 0
84 67 116 107 -68 -26 0
-91 -87 -113 119 -12 74 0
73 116 71 -92 132 -57 0
135 60 -110 -23 11 121 0
13 -5 0
107 15 -34 0
-124 -74 0
84 39 -114 -92 0
136 0
